NAME : portcgen-17-8
COMMENT : portcgen N=17, seed=8
TYPE : TSP
DIMENSION : 17
EDGE_WEIGHT_TYPE : EUC_2D
NODE_COORD_SECTION
1 -230050 13978
2 157364 156528
3 9295 -382804
4 -55068 -78058
5 -426043 143130
6 -18098 36721
7 -51580 -40434
8 183168 -210982
9 161080 -283576
10 128509 93717
11 61365 32171
12 115670 -170673
13 -99925 1700
14 -85070 176892
15 -127597 477219
16 -211794 360525
17 -297166 249508
